69
17
0 19 21 22 24 26 27 28 29 34 37 38 40 42 44 45 46 47 49 51 52 53 54 55 56 57 58 59 63 64 67 68
1 17 18 19 20 24 25 26 27 31 34 36 37 39 40 41 44 46 47 49 50 52 53 54 55 56 57 58 59 60 62 63 64 65 67
2 17 18 19 24 26 27 29 31 33 36 40 41 43 44 46 48 49 50 52 53 54 56 57 58 59 62 64 66 67 68
3 18 19 26 27 29 33 34 36 37 38 41 46 49 50 54 55 56 57 58 59 62 63 65 66 67 68
4 25 26 27 29 31 32 34 36 40 44 46 48 49 52 53 55 59 61 62 63 64 65 67 68
5 18 25 26 27 28 33 37 38 40 42 44 46 47 48 50 53 55 56 57 58 59 61 64 65 68
6 17 18 22 24 25 27 29 34 35 36 37 38 41 42 46 49 52 55 56 57 62 63 64 65 68
7 18 19 25 26 29 31 36 37 38 41 43 45 49 52 53 59 60 61 62 63 64 67 68
8 19 24 28 29 30 33 34 36 40 41 43 44 45 46 49 52 53 54 55 57 58 61 67 68
9 17 21 22 23 25 28 29 31 33 36 38 40 41 42 43 47 51 52 53 56 57 59 64 66
10 17 18 21 25 26 27 30 33 36 37 38 46 51 56 59 61 62 64
11 19 20 21 24 25 27 29 33 34 38 40 48 49 54 55 62 64 67
12 19 21 23 24 29 31 36 37 41 56 61 63 65
13 19 22 24 28 31 39 41 44 47 53 63 66
14 39 45 50 54 64 66
15 28 46 53 65
16 18 50 62
